<?xml version = "1.0" standalone="yes"?>
<!-- This file has been generated by DOcplex version 2.23.222  -->
<CPLEXSolution version="1.0">
 <header
   problemName="CVRP"
   objectiveValue="18366.6"
  />
 <variables>
  <variable name="x_0_1" index="0" value="1.00000"/>
  <variable name="x_0_4" index="3" value="1.00000"/>
  <variable name="x_0_5" index="4" value="1.00000"/>
  <variable name="x_0_6" index="5" value="1.00000"/>
  <variable name="x_0_7" index="6" value="1.00000"/>
  <variable name="x_0_8" index="7" value="1.00000"/>
  <variable name="x_0_9" index="8" value="1.00000"/>
  <variable name="x_0_10" index="9" value="1.00000"/>
  <variable name="x_0_11" index="10" value="1.00000"/>
  <variable name="x_0_12" index="11" value="1.00000"/>
  <variable name="x_0_13" index="12" value="1.00000"/>
  <variable name="x_0_14" index="13" value="1.00000"/>
  <variable name="x_0_17" index="16" value="1.00000"/>
  <variable name="x_0_19" index="18" value="1.00000"/>
  <variable name="x_0_20" index="19" value="1.00000"/>
  <variable name="x_0_25" index="24" value="1.00000"/>
  <variable name="x_0_28" index="27" value="1.00000"/>
  <variable name="x_1_0" index="29" value="1.00000"/>
  <variable name="x_2_0" index="58" value="1.00000"/>
  <variable name="x_3_18" index="104" value="1.00000"/>
  <variable name="x_4_2" index="118" value="1.00000"/>
  <variable name="x_5_15" index="159" value="1.00000"/>
  <variable name="x_6_23" index="196" value="1.00000"/>
  <variable name="x_7_16" index="218" value="1.00000"/>
  <variable name="x_8_0" index="232" value="1.00000"/>
  <variable name="x_9_21" index="281" value="1.00000"/>
  <variable name="x_10_0" index="290" value="1.00000"/>
  <variable name="x_11_0" index="319" value="1.00000"/>
  <variable name="x_12_0" index="348" value="1.00000"/>
  <variable name="x_13_0" index="377" value="1.00000"/>
  <variable name="x_14_0" index="406" value="1.00000"/>
  <variable name="x_15_24" index="458" value="1.00000"/>
  <variable name="x_16_0" index="464" value="1.00000"/>
  <variable name="x_17_26" index="518" value="1.00000"/>
  <variable name="x_18_0" index="522" value="1.00000"/>
  <variable name="x_19_22" index="572" value="1.00000"/>
  <variable name="x_20_0" index="580" value="1.00000"/>
  <variable name="x_21_0" index="609" value="1.00000"/>
  <variable name="x_22_0" index="638" value="1.00000"/>
  <variable name="x_23_3" index="670" value="1.00000"/>
  <variable name="x_24_0" index="696" value="1.00000"/>
  <variable name="x_25_0" index="725" value="1.00000"/>
  <variable name="x_26_27" index="780" value="1.00000"/>
  <variable name="x_27_0" index="783" value="1.00000"/>
  <variable name="x_28_29" index="840" value="1.00000"/>
  <variable name="x_29_0" index="841" value="1.00000"/>
  <variable name="u_1" index="870" value="29.00000"/>
  <variable name="u_2" index="871" value="30.00000"/>
  <variable name="u_3" index="872" value="23.00000"/>
  <variable name="u_4" index="873" value="24.00000"/>
  <variable name="u_5" index="874" value="12.00000"/>
  <variable name="u_6" index="875" value="7.00000"/>
  <variable name="u_7" index="876" value="13.00000"/>
  <variable name="u_8" index="877" value="30.00000"/>
  <variable name="u_9" index="878" value="16.00000"/>
  <variable name="u_10" index="879" value="30.00000"/>
  <variable name="u_11" index="880" value="29.00000"/>
  <variable name="u_12" index="881" value="25.00000"/>
  <variable name="u_13" index="882" value="19.00000"/>
  <variable name="u_14" index="883" value="30.00000"/>
  <variable name="u_15" index="884" value="27.00000"/>
  <variable name="u_16" index="885" value="30.00000"/>
  <variable name="u_17" index="886" value="12.00000"/>
  <variable name="u_18" index="887" value="30.00000"/>
  <variable name="u_19" index="888" value="22.00000"/>
  <variable name="u_20" index="889" value="30.00000"/>
  <variable name="u_21" index="890" value="30.00000"/>
  <variable name="u_22" index="891" value="27.00000"/>
  <variable name="u_23" index="892" value="21.00000"/>
  <variable name="u_24" index="893" value="30.00000"/>
  <variable name="u_25" index="894" value="22.00000"/>
  <variable name="u_26" index="895" value="24.00000"/>
  <variable name="u_27" index="896" value="28.00000"/>
  <variable name="u_28" index="897" value="13.00000"/>
  <variable name="u_29" index="898" value="30.00000"/>
 </variables>
</CPLEXSolution>
